c WARNING: for repeatability, setting FPU to use double precision
d VARIABLES            211614       
d CONSTRAINTS          919995       
c ============================[ Problem Statistics ]=============================
c |                                                                             |
c |  Number of variables:        211614                                         |
c |  Number of clauses:          919995                                         |
c |  Parse time:                   0.16 s                                       |
c |                                                                             |
c ============================[ Search Statistics ]==============================
c | Conflicts |          ORIGINAL         |          LEARNT          | Progress |
c |           |    Vars  Clauses Literals |    Limit  Clauses Lit/Cl |          |
c ===============================================================================
c |       100 |  174507   825157  2001751 |   302557       99     53 | 17.535 % |
c |       250 |  174507   825157  2001751 |   332813      249     42 | 17.535 % |
c |       475 |  174507   824947  2001247 |   366094      474     72 | 17.535 % |
c |       812 |  174507   824947  2001247 |   402704      811     62 | 17.535 % |
c |      1318 |  174507   824947  2001247 |   442974     1317     86 | 17.535 % |
c |      2077 |  174507   824947  2001247 |   487271     2076     82 | 17.535 % |
c |      3216 |  174507   824947  2001247 |   535999     3215     99 | 17.535 % |
c |      4924 |  174507   824947  2001247 |   589599     4923    108 | 17.535 % |
c |      7486 |  174507   824947  2001247 |   648559     7485    111 | 17.535 % |
c |     11330 |  174507   824947  2001247 |   713414    11329    118 | 17.535 % |
c |     17096 |  174507   824947  2001247 |   784756    17095    137 | 17.535 % |
c |     25745 |  174507   824947  2001247 |   863232    25744    130 | 17.535 % |
c |     38719 |  174507   824947  2001247 |   949555    38718    146 | 17.535 % |
c |     58180 |  174507   824947  2001247 |  1044510    58179    156 | 17.535 % |
c |     87372 |  174507   824947  2001247 |  1148961    87371    146 | 17.535 % |
c |    131161 |  174507   824947  2001247 |  1263858   131160    175 | 17.535 % |
c |    196845 |  174507   824947  2001247 |  1390243   196844    163 | 17.535 % |
c |    295371 |  174507   824947  2001247 |  1529268   295370    171 | 17.535 % |
c |    443160 |  174507   824947  2001247 |  1682195   443159    166 | 17.535 % |
c |    664843 |  174507   824947  2001247 |  1850414   664842    156 | 17.535 % |
c |    997368 |  174507   824947  2001247 |  2035456   997367    164 | 17.535 % |
c |   1496156 |  174507   824947  2001247 |  2239001  1496155    164 | 17.535 % |
c ===============================================================================
c restarts              : 3070
c conflicts             : 1606396        (896 /sec)
c decisions             : 5205808        (0.00 % random) (2904 /sec)
c propagations          : 4777017278     (2664884 /sec)
c conflict literals     : 262833555      (35.41 % deleted)
d RESTARTS             3070
d FAILURES             1606396      
d NODES                5205808      
d BACKTRACKS           5205808      
d PROPAGATIONS         4777017278   
d NOGOODSIZE           163.62 
d MEMORY               1604.00 
d TIME                 1792.58 

s UNKNOWN
